(set-info :smt-lib-version 2.6)
(set-logic QF_UFNIRA)
(set-info :source |
Generated by: Geoff Sutcliffe
Generated on: 2026-03-11
Generator: TPTPWorld
Application: Benchmarking automated theorem provers
Time limit: 120.0

These benchmarks are translations from the TPTP Library (Thousands of
Problems for Theorem Provers), see http://www.cs.miami.edu/~tptp/

The TPTP is maintained by Geoff Sutcliffe, and he contributed this
selection of benchmarks to SMT-LIB.  They were exported from the
v9.2.1 realease of TPTP.
|)
(set-info :category "industrial")
(set-info :status "unknown")
; SZS status Success
(declare-sort $$unsorted 0)
(declare-fun tptp.a () Int)
(declare-fun tptp.b () Int)
(declare-fun tptp.d () Int)
(assert (let ((_let_1 (to_real tptp.a))) (let ((_let_2 (to_real tptp.d))) (let ((_let_3 (/ _let_2 _let_1))) (let ((_let_4 (to_real tptp.b))) (let ((_let_5 (/ _let_2 _let_4))) (not (=> (and (>= tptp.d 0) (>= tptp.b tptp.a) (> tptp.a 0)) (<= (ite (>= _let_4 0.0) (to_int _let_5) (- (to_int (- _let_5)))) (ite (>= _let_1 0.0) (to_int _let_3) (- (to_int (- _let_3)))))))))))))
(check-sat)
